p wcnf 600 1900
5 -1 2 0
5 -3 4 0
5 -5 6 0
5 -7 8 0
5 -9 10 0
5 -11 12 0
5 -13 14 0
5 -15 16 0
5 -17 18 0
5 -19 20 0
5 -21 22 0
5 -23 24 0
5 -25 26 0
5 -27 28 0
5 -29 30 0
5 -31 32 0
5 -33 34 0
5 -35 36 0
5 -37 38 0
5 -39 40 0
5 -41 42 0
5 -43 44 0
5 -45 46 0
5 -47 48 0
5 -49 50 0
5 -51 52 0
5 -53 54 0
5 -55 56 0
5 -57 58 0
5 -59 60 0
5 -61 62 0
5 -63 64 0
5 -65 66 0
5 -67 68 0
5 -69 70 0
5 -71 72 0
5 -73 74 0
5 -75 76 0
5 -77 78 0
5 -79 80 0
5 -81 82 0
5 -83 84 0
5 -85 86 0
5 -87 88 0
5 -89 90 0
5 -91 92 0
5 -93 94 0
5 -95 96 0
5 -97 98 0
5 -99 100 0
5 -101 102 0
5 -103 104 0
5 -105 106 0
5 -107 108 0
5 -109 110 0
5 -111 112 0
5 -113 114 0
5 -115 116 0
5 -117 118 0
5 -119 120 0
5 -121 122 0
5 -123 124 0
5 -125 126 0
5 -127 128 0
5 -129 130 0
5 -131 132 0
5 -133 134 0
5 -135 136 0
5 -137 138 0
5 -139 140 0
5 -141 142 0
5 -143 144 0
5 -145 146 0
5 -147 148 0
5 -149 150 0
5 -151 152 0
5 -153 154 0
5 -155 156 0
5 -157 158 0
5 -159 160 0
5 -161 162 0
5 -163 164 0
5 -165 166 0
5 -167 168 0
5 -169 170 0
5 -171 172 0
5 -173 174 0
5 -175 176 0
5 -177 178 0
5 -179 180 0
5 -181 182 0
5 -183 184 0
5 -185 186 0
5 -187 188 0
5 -189 190 0
5 -191 192 0
5 -193 194 0
5 -195 196 0
5 -197 198 0
5 -199 200 0
8 -2 -2 2 0
8 -2 -4 4 0
8 -2 -6 6 0
8 -2 -8 8 0
8 -2 -10 10 0
8 -2 -12 12 0
8 -2 -14 14 0
8 -2 -16 16 0
8 -2 -18 18 0
8 -2 -20 20 0
8 -4 -22 2 0
8 -4 -24 4 0
8 -4 -26 6 0
8 -4 -28 8 0
8 -4 -30 10 0
8 -4 -32 12 0
8 -4 -34 14 0
8 -4 -36 16 0
8 -4 -38 18 0
8 -4 -40 20 0
8 -6 -42 2 0
8 -6 -44 4 0
8 -6 -46 6 0
8 -6 -48 8 0
8 -6 -50 10 0
8 -6 -52 12 0
8 -6 -54 14 0
8 -6 -56 16 0
8 -6 -58 18 0
8 -6 -60 20 0
8 -8 -62 2 0
8 -8 -64 4 0
8 -8 -66 6 0
8 -8 -68 8 0
8 -8 -70 10 0
8 -8 -72 12 0
8 -8 -74 14 0
8 -8 -76 16 0
8 -8 -78 18 0
8 -8 -80 20 0
8 -10 -82 2 0
8 -10 -84 4 0
8 -10 -86 6 0
8 -10 -88 8 0
8 -10 -90 10 0
8 -10 -92 12 0
8 -10 -94 14 0
8 -10 -96 16 0
8 -10 -98 18 0
8 -10 -100 20 0
8 -12 -102 2 0
8 -12 -104 4 0
8 -12 -106 6 0
8 -12 -108 8 0
8 -12 -110 10 0
8 -12 -112 12 0
8 -12 -114 14 0
8 -12 -116 16 0
8 -12 -118 18 0
8 -12 -120 20 0
8 -14 -122 2 0
8 -14 -124 4 0
8 -14 -126 6 0
8 -14 -128 8 0
8 -14 -130 10 0
8 -14 -132 12 0
8 -14 -134 14 0
8 -14 -136 16 0
8 -14 -138 18 0
8 -14 -140 20 0
8 -16 -142 2 0
8 -16 -144 4 0
8 -16 -146 6 0
8 -16 -148 8 0
8 -16 -150 10 0
8 -16 -152 12 0
8 -16 -154 14 0
8 -16 -156 16 0
8 -16 -158 18 0
8 -16 -160 20 0
8 -18 -162 2 0
8 -18 -164 4 0
8 -18 -166 6 0
8 -18 -168 8 0
8 -18 -170 10 0
8 -18 -172 12 0
8 -18 -174 14 0
8 -18 -176 16 0
8 -18 -178 18 0
8 -18 -180 20 0
8 -20 -182 2 0
8 -20 -184 4 0
8 -20 -186 6 0
8 -20 -188 8 0
8 -20 -190 10 0
8 -20 -192 12 0
8 -20 -194 14 0
8 -20 -196 16 0
8 -20 -198 18 0
8 -20 -200 20 0
8 -22 -2 22 0
8 -22 -4 24 0
8 -22 -6 26 0
8 -22 -8 28 0
8 -22 -10 30 0
8 -22 -12 32 0
8 -22 -14 34 0
8 -22 -16 36 0
8 -22 -18 38 0
8 -22 -20 40 0
8 -24 -22 22 0
8 -24 -24 24 0
8 -24 -26 26 0
8 -24 -28 28 0
8 -24 -30 30 0
8 -24 -32 32 0
8 -24 -34 34 0
8 -24 -36 36 0
8 -24 -38 38 0
8 -24 -40 40 0
8 -26 -42 22 0
8 -26 -44 24 0
8 -26 -46 26 0
8 -26 -48 28 0
8 -26 -50 30 0
8 -26 -52 32 0
8 -26 -54 34 0
8 -26 -56 36 0
8 -26 -58 38 0
8 -26 -60 40 0
8 -28 -62 22 0
8 -28 -64 24 0
8 -28 -66 26 0
8 -28 -68 28 0
8 -28 -70 30 0
8 -28 -72 32 0
8 -28 -74 34 0
8 -28 -76 36 0
8 -28 -78 38 0
8 -28 -80 40 0
8 -30 -82 22 0
8 -30 -84 24 0
8 -30 -86 26 0
8 -30 -88 28 0
8 -30 -90 30 0
8 -30 -92 32 0
8 -30 -94 34 0
8 -30 -96 36 0
8 -30 -98 38 0
8 -30 -100 40 0
8 -32 -102 22 0
8 -32 -104 24 0
8 -32 -106 26 0
8 -32 -108 28 0
8 -32 -110 30 0
8 -32 -112 32 0
8 -32 -114 34 0
8 -32 -116 36 0
8 -32 -118 38 0
8 -32 -120 40 0
8 -34 -122 22 0
8 -34 -124 24 0
8 -34 -126 26 0
8 -34 -128 28 0
8 -34 -130 30 0
8 -34 -132 32 0
8 -34 -134 34 0
8 -34 -136 36 0
8 -34 -138 38 0
8 -34 -140 40 0
8 -36 -142 22 0
8 -36 -144 24 0
8 -36 -146 26 0
8 -36 -148 28 0
8 -36 -150 30 0
8 -36 -152 32 0
8 -36 -154 34 0
8 -36 -156 36 0
8 -36 -158 38 0
8 -36 -160 40 0
8 -38 -162 22 0
8 -38 -164 24 0
8 -38 -166 26 0
8 -38 -168 28 0
8 -38 -170 30 0
8 -38 -172 32 0
8 -38 -174 34 0
8 -38 -176 36 0
8 -38 -178 38 0
8 -38 -180 40 0
8 -40 -182 22 0
8 -40 -184 24 0
8 -40 -186 26 0
8 -40 -188 28 0
8 -40 -190 30 0
8 -40 -192 32 0
8 -40 -194 34 0
8 -40 -196 36 0
8 -40 -198 38 0
8 -40 -200 40 0
8 -42 -2 42 0
8 -42 -4 44 0
8 -42 -6 46 0
8 -42 -8 48 0
8 -42 -10 50 0
8 -42 -12 52 0
8 -42 -14 54 0
8 -42 -16 56 0
8 -42 -18 58 0
8 -42 -20 60 0
8 -44 -22 42 0
8 -44 -24 44 0
8 -44 -26 46 0
8 -44 -28 48 0
8 -44 -30 50 0
8 -44 -32 52 0
8 -44 -34 54 0
8 -44 -36 56 0
8 -44 -38 58 0
8 -44 -40 60 0
8 -46 -42 42 0
8 -46 -44 44 0
8 -46 -46 46 0
8 -46 -48 48 0
8 -46 -50 50 0
8 -46 -52 52 0
8 -46 -54 54 0
8 -46 -56 56 0
8 -46 -58 58 0
8 -46 -60 60 0
8 -48 -62 42 0
8 -48 -64 44 0
8 -48 -66 46 0
8 -48 -68 48 0
8 -48 -70 50 0
8 -48 -72 52 0
8 -48 -74 54 0
8 -48 -76 56 0
8 -48 -78 58 0
8 -48 -80 60 0
8 -50 -82 42 0
8 -50 -84 44 0
8 -50 -86 46 0
8 -50 -88 48 0
8 -50 -90 50 0
8 -50 -92 52 0
8 -50 -94 54 0
8 -50 -96 56 0
8 -50 -98 58 0
8 -50 -100 60 0
8 -52 -102 42 0
8 -52 -104 44 0
8 -52 -106 46 0
8 -52 -108 48 0
8 -52 -110 50 0
8 -52 -112 52 0
8 -52 -114 54 0
8 -52 -116 56 0
8 -52 -118 58 0
8 -52 -120 60 0
8 -54 -122 42 0
8 -54 -124 44 0
8 -54 -126 46 0
8 -54 -128 48 0
8 -54 -130 50 0
8 -54 -132 52 0
8 -54 -134 54 0
8 -54 -136 56 0
8 -54 -138 58 0
8 -54 -140 60 0
8 -56 -142 42 0
8 -56 -144 44 0
8 -56 -146 46 0
8 -56 -148 48 0
8 -56 -150 50 0
8 -56 -152 52 0
8 -56 -154 54 0
8 -56 -156 56 0
8 -56 -158 58 0
8 -56 -160 60 0
8 -58 -162 42 0
8 -58 -164 44 0
8 -58 -166 46 0
8 -58 -168 48 0
8 -58 -170 50 0
8 -58 -172 52 0
8 -58 -174 54 0
8 -58 -176 56 0
8 -58 -178 58 0
8 -58 -180 60 0
8 -60 -182 42 0
8 -60 -184 44 0
8 -60 -186 46 0
8 -60 -188 48 0
8 -60 -190 50 0
8 -60 -192 52 0
8 -60 -194 54 0
8 -60 -196 56 0
8 -60 -198 58 0
8 -60 -200 60 0
8 -62 -2 62 0
8 -62 -4 64 0
8 -62 -6 66 0
8 -62 -8 68 0
8 -62 -10 70 0
8 -62 -12 72 0
8 -62 -14 74 0
8 -62 -16 76 0
8 -62 -18 78 0
8 -62 -20 80 0
8 -64 -22 62 0
8 -64 -24 64 0
8 -64 -26 66 0
8 -64 -28 68 0
8 -64 -30 70 0
8 -64 -32 72 0
8 -64 -34 74 0
8 -64 -36 76 0
8 -64 -38 78 0
8 -64 -40 80 0
8 -66 -42 62 0
8 -66 -44 64 0
8 -66 -46 66 0
8 -66 -48 68 0
8 -66 -50 70 0
8 -66 -52 72 0
8 -66 -54 74 0
8 -66 -56 76 0
8 -66 -58 78 0
8 -66 -60 80 0
8 -68 -62 62 0
8 -68 -64 64 0
8 -68 -66 66 0
8 -68 -68 68 0
8 -68 -70 70 0
8 -68 -72 72 0
8 -68 -74 74 0
8 -68 -76 76 0
8 -68 -78 78 0
8 -68 -80 80 0
8 -70 -82 62 0
8 -70 -84 64 0
8 -70 -86 66 0
8 -70 -88 68 0
8 -70 -90 70 0
8 -70 -92 72 0
8 -70 -94 74 0
8 -70 -96 76 0
8 -70 -98 78 0
8 -70 -100 80 0
8 -72 -102 62 0
8 -72 -104 64 0
8 -72 -106 66 0
8 -72 -108 68 0
8 -72 -110 70 0
8 -72 -112 72 0
8 -72 -114 74 0
8 -72 -116 76 0
8 -72 -118 78 0
8 -72 -120 80 0
8 -74 -122 62 0
8 -74 -124 64 0
8 -74 -126 66 0
8 -74 -128 68 0
8 -74 -130 70 0
8 -74 -132 72 0
8 -74 -134 74 0
8 -74 -136 76 0
8 -74 -138 78 0
8 -74 -140 80 0
8 -76 -142 62 0
8 -76 -144 64 0
8 -76 -146 66 0
8 -76 -148 68 0
8 -76 -150 70 0
8 -76 -152 72 0
8 -76 -154 74 0
8 -76 -156 76 0
8 -76 -158 78 0
8 -76 -160 80 0
8 -78 -162 62 0
8 -78 -164 64 0
8 -78 -166 66 0
8 -78 -168 68 0
8 -78 -170 70 0
8 -78 -172 72 0
8 -78 -174 74 0
8 -78 -176 76 0
8 -78 -178 78 0
8 -78 -180 80 0
8 -80 -182 62 0
8 -80 -184 64 0
8 -80 -186 66 0
8 -80 -188 68 0
8 -80 -190 70 0
8 -80 -192 72 0
8 -80 -194 74 0
8 -80 -196 76 0
8 -80 -198 78 0
8 -80 -200 80 0
8 -82 -2 82 0
8 -82 -4 84 0
8 -82 -6 86 0
8 -82 -8 88 0
8 -82 -10 90 0
8 -82 -12 92 0
8 -82 -14 94 0
8 -82 -16 96 0
8 -82 -18 98 0
8 -82 -20 100 0
8 -84 -22 82 0
8 -84 -24 84 0
8 -84 -26 86 0
8 -84 -28 88 0
8 -84 -30 90 0
8 -84 -32 92 0
8 -84 -34 94 0
8 -84 -36 96 0
8 -84 -38 98 0
8 -84 -40 100 0
8 -86 -42 82 0
8 -86 -44 84 0
8 -86 -46 86 0
8 -86 -48 88 0
8 -86 -50 90 0
8 -86 -52 92 0
8 -86 -54 94 0
8 -86 -56 96 0
8 -86 -58 98 0
8 -86 -60 100 0
8 -88 -62 82 0
8 -88 -64 84 0
8 -88 -66 86 0
8 -88 -68 88 0
8 -88 -70 90 0
8 -88 -72 92 0
8 -88 -74 94 0
8 -88 -76 96 0
8 -88 -78 98 0
8 -88 -80 100 0
8 -90 -82 82 0
8 -90 -84 84 0
8 -90 -86 86 0
8 -90 -88 88 0
8 -90 -90 90 0
8 -90 -92 92 0
8 -90 -94 94 0
8 -90 -96 96 0
8 -90 -98 98 0
8 -90 -100 100 0
8 -92 -102 82 0
8 -92 -104 84 0
8 -92 -106 86 0
8 -92 -108 88 0
8 -92 -110 90 0
8 -92 -112 92 0
8 -92 -114 94 0
8 -92 -116 96 0
8 -92 -118 98 0
8 -92 -120 100 0
8 -94 -122 82 0
8 -94 -124 84 0
8 -94 -126 86 0
8 -94 -128 88 0
8 -94 -130 90 0
8 -94 -132 92 0
8 -94 -134 94 0
8 -94 -136 96 0
8 -94 -138 98 0
8 -94 -140 100 0
8 -96 -142 82 0
8 -96 -144 84 0
8 -96 -146 86 0
8 -96 -148 88 0
8 -96 -150 90 0
8 -96 -152 92 0
8 -96 -154 94 0
8 -96 -156 96 0
8 -96 -158 98 0
8 -96 -160 100 0
8 -98 -162 82 0
8 -98 -164 84 0
8 -98 -166 86 0
8 -98 -168 88 0
8 -98 -170 90 0
8 -98 -172 92 0
8 -98 -174 94 0
8 -98 -176 96 0
8 -98 -178 98 0
8 -98 -180 100 0
8 -100 -182 82 0
8 -100 -184 84 0
8 -100 -186 86 0
8 -100 -188 88 0
8 -100 -190 90 0
8 -100 -192 92 0
8 -100 -194 94 0
8 -100 -196 96 0
8 -100 -198 98 0
8 -100 -200 100 0
8 -102 -2 102 0
8 -102 -4 104 0
8 -102 -6 106 0
8 -102 -8 108 0
8 -102 -10 110 0
8 -102 -12 112 0
8 -102 -14 114 0
8 -102 -16 116 0
8 -102 -18 118 0
8 -102 -20 120 0
8 -104 -22 102 0
8 -104 -24 104 0
8 -104 -26 106 0
8 -104 -28 108 0
8 -104 -30 110 0
8 -104 -32 112 0
8 -104 -34 114 0
8 -104 -36 116 0
8 -104 -38 118 0
8 -104 -40 120 0
8 -106 -42 102 0
8 -106 -44 104 0
8 -106 -46 106 0
8 -106 -48 108 0
8 -106 -50 110 0
8 -106 -52 112 0
8 -106 -54 114 0
8 -106 -56 116 0
8 -106 -58 118 0
8 -106 -60 120 0
8 -108 -62 102 0
8 -108 -64 104 0
8 -108 -66 106 0
8 -108 -68 108 0
8 -108 -70 110 0
8 -108 -72 112 0
8 -108 -74 114 0
8 -108 -76 116 0
8 -108 -78 118 0
8 -108 -80 120 0
8 -110 -82 102 0
8 -110 -84 104 0
8 -110 -86 106 0
8 -110 -88 108 0
8 -110 -90 110 0
8 -110 -92 112 0
8 -110 -94 114 0
8 -110 -96 116 0
8 -110 -98 118 0
8 -110 -100 120 0
8 -112 -102 102 0
8 -112 -104 104 0
8 -112 -106 106 0
8 -112 -108 108 0
8 -112 -110 110 0
8 -112 -112 112 0
8 -112 -114 114 0
8 -112 -116 116 0
8 -112 -118 118 0
8 -112 -120 120 0
8 -114 -122 102 0
8 -114 -124 104 0
8 -114 -126 106 0
8 -114 -128 108 0
8 -114 -130 110 0
8 -114 -132 112 0
8 -114 -134 114 0
8 -114 -136 116 0
8 -114 -138 118 0
8 -114 -140 120 0
8 -116 -142 102 0
8 -116 -144 104 0
8 -116 -146 106 0
8 -116 -148 108 0
8 -116 -150 110 0
8 -116 -152 112 0
8 -116 -154 114 0
8 -116 -156 116 0
8 -116 -158 118 0
8 -116 -160 120 0
8 -118 -162 102 0
8 -118 -164 104 0
8 -118 -166 106 0
8 -118 -168 108 0
8 -118 -170 110 0
8 -118 -172 112 0
8 -118 -174 114 0
8 -118 -176 116 0
8 -118 -178 118 0
8 -118 -180 120 0
8 -120 -182 102 0
8 -120 -184 104 0
8 -120 -186 106 0
8 -120 -188 108 0
8 -120 -190 110 0
8 -120 -192 112 0
8 -120 -194 114 0
8 -120 -196 116 0
8 -120 -198 118 0
8 -120 -200 120 0
8 -122 -2 122 0
8 -122 -4 124 0
8 -122 -6 126 0
8 -122 -8 128 0
8 -122 -10 130 0
8 -122 -12 132 0
8 -122 -14 134 0
8 -122 -16 136 0
8 -122 -18 138 0
8 -122 -20 140 0
8 -124 -22 122 0
8 -124 -24 124 0
8 -124 -26 126 0
8 -124 -28 128 0
8 -124 -30 130 0
8 -124 -32 132 0
8 -124 -34 134 0
8 -124 -36 136 0
8 -124 -38 138 0
8 -124 -40 140 0
8 -126 -42 122 0
8 -126 -44 124 0
8 -126 -46 126 0
8 -126 -48 128 0
8 -126 -50 130 0
8 -126 -52 132 0
8 -126 -54 134 0
8 -126 -56 136 0
8 -126 -58 138 0
8 -126 -60 140 0
8 -128 -62 122 0
8 -128 -64 124 0
8 -128 -66 126 0
8 -128 -68 128 0
8 -128 -70 130 0
8 -128 -72 132 0
8 -128 -74 134 0
8 -128 -76 136 0
8 -128 -78 138 0
8 -128 -80 140 0
8 -130 -82 122 0
8 -130 -84 124 0
8 -130 -86 126 0
8 -130 -88 128 0
8 -130 -90 130 0
8 -130 -92 132 0
8 -130 -94 134 0
8 -130 -96 136 0
8 -130 -98 138 0
8 -130 -100 140 0
8 -132 -102 122 0
8 -132 -104 124 0
8 -132 -106 126 0
8 -132 -108 128 0
8 -132 -110 130 0
8 -132 -112 132 0
8 -132 -114 134 0
8 -132 -116 136 0
8 -132 -118 138 0
8 -132 -120 140 0
8 -134 -122 122 0
8 -134 -124 124 0
8 -134 -126 126 0
8 -134 -128 128 0
8 -134 -130 130 0
8 -134 -132 132 0
8 -134 -134 134 0
8 -134 -136 136 0
8 -134 -138 138 0
8 -134 -140 140 0
8 -136 -142 122 0
8 -136 -144 124 0
8 -136 -146 126 0
8 -136 -148 128 0
8 -136 -150 130 0
8 -136 -152 132 0
8 -136 -154 134 0
8 -136 -156 136 0
8 -136 -158 138 0
8 -136 -160 140 0
8 -138 -162 122 0
8 -138 -164 124 0
8 -138 -166 126 0
8 -138 -168 128 0
8 -138 -170 130 0
8 -138 -172 132 0
8 -138 -174 134 0
8 -138 -176 136 0
8 -138 -178 138 0
8 -138 -180 140 0
8 -140 -182 122 0
8 -140 -184 124 0
8 -140 -186 126 0
8 -140 -188 128 0
8 -140 -190 130 0
8 -140 -192 132 0
8 -140 -194 134 0
8 -140 -196 136 0
8 -140 -198 138 0
8 -140 -200 140 0
8 -142 -2 142 0
8 -142 -4 144 0
8 -142 -6 146 0
8 -142 -8 148 0
8 -142 -10 150 0
8 -142 -12 152 0
8 -142 -14 154 0
8 -142 -16 156 0
8 -142 -18 158 0
8 -142 -20 160 0
8 -144 -22 142 0
8 -144 -24 144 0
8 -144 -26 146 0
8 -144 -28 148 0
8 -144 -30 150 0
8 -144 -32 152 0
8 -144 -34 154 0
8 -144 -36 156 0
8 -144 -38 158 0
8 -144 -40 160 0
8 -146 -42 142 0
8 -146 -44 144 0
8 -146 -46 146 0
8 -146 -48 148 0
8 -146 -50 150 0
8 -146 -52 152 0
8 -146 -54 154 0
8 -146 -56 156 0
8 -146 -58 158 0
8 -146 -60 160 0
8 -148 -62 142 0
8 -148 -64 144 0
8 -148 -66 146 0
8 -148 -68 148 0
8 -148 -70 150 0
8 -148 -72 152 0
8 -148 -74 154 0
8 -148 -76 156 0
8 -148 -78 158 0
8 -148 -80 160 0
8 -150 -82 142 0
8 -150 -84 144 0
8 -150 -86 146 0
8 -150 -88 148 0
8 -150 -90 150 0
8 -150 -92 152 0
8 -150 -94 154 0
8 -150 -96 156 0
8 -150 -98 158 0
8 -150 -100 160 0
8 -152 -102 142 0
8 -152 -104 144 0
8 -152 -106 146 0
8 -152 -108 148 0
8 -152 -110 150 0
8 -152 -112 152 0
8 -152 -114 154 0
8 -152 -116 156 0
8 -152 -118 158 0
8 -152 -120 160 0
8 -154 -122 142 0
8 -154 -124 144 0
8 -154 -126 146 0
8 -154 -128 148 0
8 -154 -130 150 0
8 -154 -132 152 0
8 -154 -134 154 0
8 -154 -136 156 0
8 -154 -138 158 0
8 -154 -140 160 0
8 -156 -142 142 0
8 -156 -144 144 0
8 -156 -146 146 0
8 -156 -148 148 0
8 -156 -150 150 0
8 -156 -152 152 0
8 -156 -154 154 0
8 -156 -156 156 0
8 -156 -158 158 0
8 -156 -160 160 0
8 -158 -162 142 0
8 -158 -164 144 0
8 -158 -166 146 0
8 -158 -168 148 0
8 -158 -170 150 0
8 -158 -172 152 0
8 -158 -174 154 0
8 -158 -176 156 0
8 -158 -178 158 0
8 -158 -180 160 0
8 -160 -182 142 0
8 -160 -184 144 0
8 -160 -186 146 0
8 -160 -188 148 0
8 -160 -190 150 0
8 -160 -192 152 0
8 -160 -194 154 0
8 -160 -196 156 0
8 -160 -198 158 0
8 -160 -200 160 0
8 -162 -2 162 0
8 -162 -4 164 0
8 -162 -6 166 0
8 -162 -8 168 0
8 -162 -10 170 0
8 -162 -12 172 0
8 -162 -14 174 0
8 -162 -16 176 0
8 -162 -18 178 0
8 -162 -20 180 0
8 -164 -22 162 0
8 -164 -24 164 0
8 -164 -26 166 0
8 -164 -28 168 0
8 -164 -30 170 0
8 -164 -32 172 0
8 -164 -34 174 0
8 -164 -36 176 0
8 -164 -38 178 0
8 -164 -40 180 0
8 -166 -42 162 0
8 -166 -44 164 0
8 -166 -46 166 0
8 -166 -48 168 0
8 -166 -50 170 0
8 -166 -52 172 0
8 -166 -54 174 0
8 -166 -56 176 0
8 -166 -58 178 0
8 -166 -60 180 0
8 -168 -62 162 0
8 -168 -64 164 0
8 -168 -66 166 0
8 -168 -68 168 0
8 -168 -70 170 0
8 -168 -72 172 0
8 -168 -74 174 0
8 -168 -76 176 0
8 -168 -78 178 0
8 -168 -80 180 0
8 -170 -82 162 0
8 -170 -84 164 0
8 -170 -86 166 0
8 -170 -88 168 0
8 -170 -90 170 0
8 -170 -92 172 0
8 -170 -94 174 0
8 -170 -96 176 0
8 -170 -98 178 0
8 -170 -100 180 0
8 -172 -102 162 0
8 -172 -104 164 0
8 -172 -106 166 0
8 -172 -108 168 0
8 -172 -110 170 0
8 -172 -112 172 0
8 -172 -114 174 0
8 -172 -116 176 0
8 -172 -118 178 0
8 -172 -120 180 0
8 -174 -122 162 0
8 -174 -124 164 0
8 -174 -126 166 0
8 -174 -128 168 0
8 -174 -130 170 0
8 -174 -132 172 0
8 -174 -134 174 0
8 -174 -136 176 0
8 -174 -138 178 0
8 -174 -140 180 0
8 -176 -142 162 0
8 -176 -144 164 0
8 -176 -146 166 0
8 -176 -148 168 0
8 -176 -150 170 0
8 -176 -152 172 0
8 -176 -154 174 0
8 -176 -156 176 0
8 -176 -158 178 0
8 -176 -160 180 0
8 -178 -162 162 0
8 -178 -164 164 0
8 -178 -166 166 0
8 -178 -168 168 0
8 -178 -170 170 0
8 -178 -172 172 0
8 -178 -174 174 0
8 -178 -176 176 0
8 -178 -178 178 0
8 -178 -180 180 0
8 -180 -182 162 0
8 -180 -184 164 0
8 -180 -186 166 0
8 -180 -188 168 0
8 -180 -190 170 0
8 -180 -192 172 0
8 -180 -194 174 0
8 -180 -196 176 0
8 -180 -198 178 0
8 -180 -200 180 0
8 -182 -2 182 0
8 -182 -4 184 0
8 -182 -6 186 0
8 -182 -8 188 0
8 -182 -10 190 0
8 -182 -12 192 0
8 -182 -14 194 0
8 -182 -16 196 0
8 -182 -18 198 0
8 -182 -20 200 0
8 -184 -22 182 0
8 -184 -24 184 0
8 -184 -26 186 0
8 -184 -28 188 0
8 -184 -30 190 0
8 -184 -32 192 0
8 -184 -34 194 0
8 -184 -36 196 0
8 -184 -38 198 0
8 -184 -40 200 0
8 -186 -42 182 0
8 -186 -44 184 0
8 -186 -46 186 0
8 -186 -48 188 0
8 -186 -50 190 0
8 -186 -52 192 0
8 -186 -54 194 0
8 -186 -56 196 0
8 -186 -58 198 0
8 -186 -60 200 0
8 -188 -62 182 0
8 -188 -64 184 0
8 -188 -66 186 0
8 -188 -68 188 0
8 -188 -70 190 0
8 -188 -72 192 0
8 -188 -74 194 0
8 -188 -76 196 0
8 -188 -78 198 0
8 -188 -80 200 0
8 -190 -82 182 0
8 -190 -84 184 0
8 -190 -86 186 0
8 -190 -88 188 0
8 -190 -90 190 0
8 -190 -92 192 0
8 -190 -94 194 0
8 -190 -96 196 0
8 -190 -98 198 0
8 -190 -100 200 0
8 -192 -102 182 0
8 -192 -104 184 0
8 -192 -106 186 0
8 -192 -108 188 0
8 -192 -110 190 0
8 -192 -112 192 0
8 -192 -114 194 0
8 -192 -116 196 0
8 -192 -118 198 0
8 -192 -120 200 0
8 -194 -122 182 0
8 -194 -124 184 0
8 -194 -126 186 0
8 -194 -128 188 0
8 -194 -130 190 0
8 -194 -132 192 0
8 -194 -134 194 0
8 -194 -136 196 0
8 -194 -138 198 0
8 -194 -140 200 0
8 -196 -142 182 0
8 -196 -144 184 0
8 -196 -146 186 0
8 -196 -148 188 0
8 -196 -150 190 0
8 -196 -152 192 0
8 -196 -154 194 0
8 -196 -156 196 0
8 -196 -158 198 0
8 -196 -160 200 0
8 -198 -162 182 0
8 -198 -164 184 0
8 -198 -166 186 0
8 -198 -168 188 0
8 -198 -170 190 0
8 -198 -172 192 0
8 -198 -174 194 0
8 -198 -176 196 0
8 -198 -178 198 0
8 -198 -180 200 0
8 -200 -182 182 0
8 -200 -184 184 0
8 -200 -186 186 0
8 -200 -188 188 0
8 -200 -190 190 0
8 -200 -192 192 0
8 -200 -194 194 0
8 -200 -196 196 0
8 -200 -198 198 0
8 -200 -200 200 0
2 -1 201 202 0
2 -3 203 204 0
2 -5 205 206 0
2 -7 207 208 0
2 -9 209 210 0
2 -11 211 212 0
2 -13 213 214 0
2 -15 215 216 0
2 -17 217 218 0
2 -19 219 220 0
2 -21 221 222 0
2 -23 223 224 0
2 -25 225 226 0
2 -27 227 228 0
2 -29 229 230 0
2 -31 231 232 0
2 -33 233 234 0
2 -35 235 236 0
2 -37 237 238 0
2 -39 239 240 0
2 -41 241 242 0
2 -43 243 244 0
2 -45 245 246 0
2 -47 247 248 0
2 -49 249 250 0
2 -51 251 252 0
2 -53 253 254 0
2 -55 255 256 0
2 -57 257 258 0
2 -59 259 260 0
2 -61 261 262 0
2 -63 263 264 0
2 -65 265 266 0
2 -67 267 268 0
2 -69 269 270 0
2 -71 271 272 0
2 -73 273 274 0
2 -75 275 276 0
2 -77 277 278 0
2 -79 279 280 0
2 -81 281 282 0
2 -83 283 284 0
2 -85 285 286 0
2 -87 287 288 0
2 -89 289 290 0
2 -91 291 292 0
2 -93 293 294 0
2 -95 295 296 0
2 -97 297 298 0
2 -99 299 300 0
2 -101 301 302 0
2 -103 303 304 0
2 -105 305 306 0
2 -107 307 308 0
2 -109 309 310 0
2 -111 311 312 0
2 -113 313 314 0
2 -115 315 316 0
2 -117 317 318 0
2 -119 319 320 0
2 -121 321 322 0
2 -123 323 324 0
2 -125 325 326 0
2 -127 327 328 0
2 -129 329 330 0
2 -131 331 332 0
2 -133 333 334 0
2 -135 335 336 0
2 -137 337 338 0
2 -139 339 340 0
2 -141 341 342 0
2 -143 343 344 0
2 -145 345 346 0
2 -147 347 348 0
2 -149 349 350 0
2 -151 351 352 0
2 -153 353 354 0
2 -155 355 356 0
2 -157 357 358 0
2 -159 359 360 0
2 -161 361 362 0
2 -163 363 364 0
2 -165 365 366 0
2 -167 367 368 0
2 -169 369 370 0
2 -171 371 372 0
2 -173 373 374 0
2 -175 375 376 0
2 -177 377 378 0
2 -179 379 380 0
2 -181 381 382 0
2 -183 383 384 0
2 -185 385 386 0
2 -187 387 388 0
2 -189 389 390 0
2 -191 391 392 0
2 -193 393 394 0
2 -195 395 396 0
2 -197 397 398 0
2 -199 399 400 0
4 -1 401 402 0
4 -3 403 404 0
4 -5 405 406 0
4 -7 407 408 0
4 -9 409 410 0
4 -11 411 412 0
4 -13 413 414 0
4 -15 415 416 0
4 -17 417 418 0
4 -19 419 420 0
4 -21 421 422 0
4 -23 423 424 0
4 -25 425 426 0
4 -27 427 428 0
4 -29 429 430 0
4 -31 431 432 0
4 -33 433 434 0
4 -35 435 436 0
4 -37 437 438 0
4 -39 439 440 0
4 -41 441 442 0
4 -43 443 444 0
4 -45 445 446 0
4 -47 447 448 0
4 -49 449 450 0
4 -51 451 452 0
4 -53 453 454 0
4 -55 455 456 0
4 -57 457 458 0
4 -59 459 460 0
4 -61 461 462 0
4 -63 463 464 0
4 -65 465 466 0
4 -67 467 468 0
4 -69 469 470 0
4 -71 471 472 0
4 -73 473 474 0
4 -75 475 476 0
4 -77 477 478 0
4 -79 479 480 0
4 -81 481 482 0
4 -83 483 484 0
4 -85 485 486 0
4 -87 487 488 0
4 -89 489 490 0
4 -91 491 492 0
4 -93 493 494 0
4 -95 495 496 0
4 -97 497 498 0
4 -99 499 500 0
4 -101 501 502 0
4 -103 503 504 0
4 -105 505 506 0
4 -107 507 508 0
4 -109 509 510 0
4 -111 511 512 0
4 -113 513 514 0
4 -115 515 516 0
4 -117 517 518 0
4 -119 519 520 0
4 -121 521 522 0
4 -123 523 524 0
4 -125 525 526 0
4 -127 527 528 0
4 -129 529 530 0
4 -131 531 532 0
4 -133 533 534 0
4 -135 535 536 0
4 -137 537 538 0
4 -139 539 540 0
4 -141 541 542 0
4 -143 543 544 0
4 -145 545 546 0
4 -147 547 548 0
4 -149 549 550 0
4 -151 551 552 0
4 -153 553 554 0
4 -155 555 556 0
4 -157 557 558 0
4 -159 559 560 0
4 -161 561 562 0
4 -163 563 564 0
4 -165 565 566 0
4 -167 567 568 0
4 -169 569 570 0
4 -171 571 572 0
4 -173 573 574 0
4 -175 575 576 0
4 -177 577 578 0
4 -179 579 580 0
4 -181 581 582 0
4 -183 583 584 0
4 -185 585 586 0
4 -187 587 588 0
4 -189 589 590 0
4 -191 591 592 0
4 -193 593 594 0
4 -195 595 596 0
4 -197 597 598 0
4 -199 599 600 0
3 1 0
3 3 0
3 5 0
3 7 0
3 9 0
3 11 0
3 13 0
3 15 0
3 17 0
3 19 0
3 21 0
3 23 0
3 25 0
3 27 0
3 29 0
3 31 0
3 33 0
3 35 0
3 37 0
3 39 0
3 41 0
3 43 0
3 45 0
3 47 0
3 49 0
3 51 0
3 53 0
3 55 0
3 57 0
3 59 0
3 61 0
3 63 0
3 65 0
3 67 0
3 69 0
3 71 0
3 73 0
3 75 0
3 77 0
3 79 0
3 81 0
3 83 0
3 85 0
3 87 0
3 89 0
3 91 0
3 93 0
3 95 0
3 97 0
3 99 0
3 101 0
3 103 0
3 105 0
3 107 0
3 109 0
3 111 0
3 113 0
3 115 0
3 117 0
3 119 0
3 121 0
3 123 0
3 125 0
3 127 0
3 129 0
3 131 0
3 133 0
3 135 0
3 137 0
3 139 0
3 141 0
3 143 0
3 145 0
3 147 0
3 149 0
3 151 0
3 153 0
3 155 0
3 157 0
3 159 0
3 161 0
3 163 0
3 165 0
3 167 0
3 169 0
3 171 0
3 173 0
3 175 0
3 177 0
3 179 0
3 181 0
3 183 0
3 185 0
3 187 0
3 189 0
3 191 0
3 193 0
3 195 0
3 197 0
3 199 0
6 -401 0
6 -403 0
6 -405 0
6 -407 0
6 -409 0
6 -411 0
6 -413 0
6 -415 0
6 -417 0
6 -419 0
6 -421 0
6 -423 0
6 -425 0
6 -427 0
6 -429 0
6 -431 0
6 -433 0
6 -435 0
6 -437 0
6 -439 0
6 -441 0
6 -443 0
6 -445 0
6 -447 0
6 -449 0
6 -451 0
6 -453 0
6 -455 0
6 -457 0
6 -459 0
6 -461 0
6 -463 0
6 -465 0
6 -467 0
6 -469 0
6 -471 0
6 -473 0
6 -475 0
6 -477 0
6 -479 0
6 -481 0
6 -483 0
6 -485 0
6 -487 0
6 -489 0
6 -491 0
6 -493 0
6 -495 0
6 -497 0
6 -499 0
6 -501 0
6 -503 0
6 -505 0
6 -507 0
6 -509 0
6 -511 0
6 -513 0
6 -515 0
6 -517 0
6 -519 0
6 -521 0
6 -523 0
6 -525 0
6 -527 0
6 -529 0
6 -531 0
6 -533 0
6 -535 0
6 -537 0
6 -539 0
6 -541 0
6 -543 0
6 -545 0
6 -547 0
6 -549 0
6 -551 0
6 -553 0
6 -555 0
6 -557 0
6 -559 0
6 -561 0
6 -563 0
6 -565 0
6 -567 0
6 -569 0
6 -571 0
6 -573 0
6 -575 0
6 -577 0
6 -579 0
6 -581 0
6 -583 0
6 -585 0
6 -587 0
6 -589 0
6 -591 0
6 -593 0
6 -595 0
6 -597 0
6 -599 0
7 -402 0
7 -404 0
7 -406 0
7 -408 0
7 -410 0
7 -412 0
7 -414 0
7 -416 0
7 -418 0
7 -420 0
7 -422 0
7 -424 0
7 -426 0
7 -428 0
7 -430 0
7 -432 0
7 -434 0
7 -436 0
7 -438 0
7 -440 0
7 -442 0
7 -444 0
7 -446 0
7 -448 0
7 -450 0
7 -452 0
7 -454 0
7 -456 0
7 -458 0
7 -460 0
7 -462 0
7 -464 0
7 -466 0
7 -468 0
7 -470 0
7 -472 0
7 -474 0
7 -476 0
7 -478 0
7 -480 0
7 -482 0
7 -484 0
7 -486 0
7 -488 0
7 -490 0
7 -492 0
7 -494 0
7 -496 0
7 -498 0
7 -500 0
7 -502 0
7 -504 0
7 -506 0
7 -508 0
7 -510 0
7 -512 0
7 -514 0
7 -516 0
7 -518 0
7 -520 0
7 -522 0
7 -524 0
7 -526 0
7 -528 0
7 -530 0
7 -532 0
7 -534 0
7 -536 0
7 -538 0
7 -540 0
7 -542 0
7 -544 0
7 -546 0
7 -548 0
7 -550 0
7 -552 0
7 -554 0
7 -556 0
7 -558 0
7 -560 0
7 -562 0
7 -564 0
7 -566 0
7 -568 0
7 -570 0
7 -572 0
7 -574 0
7 -576 0
7 -578 0
7 -580 0
7 -582 0
7 -584 0
7 -586 0
7 -588 0
7 -590 0
7 -592 0
7 -594 0
7 -596 0
7 -598 0
7 -600 0
1 -201 0
1 -203 0
1 -205 0
1 -207 0
1 -209 0
1 -211 0
1 -213 0
1 -215 0
1 -217 0
1 -219 0
1 -221 0
1 -223 0
1 -225 0
1 -227 0
1 -229 0
1 -231 0
1 -233 0
1 -235 0
1 -237 0
1 -239 0
1 -241 0
1 -243 0
1 -245 0
1 -247 0
1 -249 0
1 -251 0
1 -253 0
1 -255 0
1 -257 0
1 -259 0
1 -261 0
1 -263 0
1 -265 0
1 -267 0
1 -269 0
1 -271 0
1 -273 0
1 -275 0
1 -277 0
1 -279 0
1 -281 0
1 -283 0
1 -285 0
1 -287 0
1 -289 0
1 -291 0
1 -293 0
1 -295 0
1 -297 0
1 -299 0
1 -301 0
1 -303 0
1 -305 0
1 -307 0
1 -309 0
1 -311 0
1 -313 0
1 -315 0
1 -317 0
1 -319 0
1 -321 0
1 -323 0
1 -325 0
1 -327 0
1 -329 0
1 -331 0
1 -333 0
1 -335 0
1 -337 0
1 -339 0
1 -341 0
1 -343 0
1 -345 0
1 -347 0
1 -349 0
1 -351 0
1 -353 0
1 -355 0
1 -357 0
1 -359 0
1 -361 0
1 -363 0
1 -365 0
1 -367 0
1 -369 0
1 -371 0
1 -373 0
1 -375 0
1 -377 0
1 -379 0
1 -381 0
1 -383 0
1 -385 0
1 -387 0
1 -389 0
1 -391 0
1 -393 0
1 -395 0
1 -397 0
1 -399 0
8 -202 0
8 -204 0
8 -206 0
8 -208 0
8 -210 0
8 -212 0
8 -214 0
8 -216 0
8 -218 0
8 -220 0
8 -222 0
8 -224 0
8 -226 0
8 -228 0
8 -230 0
8 -232 0
8 -234 0
8 -236 0
8 -238 0
8 -240 0
8 -242 0
8 -244 0
8 -246 0
8 -248 0
8 -250 0
8 -252 0
8 -254 0
8 -256 0
8 -258 0
8 -260 0
8 -262 0
8 -264 0
8 -266 0
8 -268 0
8 -270 0
8 -272 0
8 -274 0
8 -276 0
8 -278 0
8 -280 0
8 -282 0
8 -284 0
8 -286 0
8 -288 0
8 -290 0
8 -292 0
8 -294 0
8 -296 0
8 -298 0
8 -300 0
8 -302 0
8 -304 0
8 -306 0
8 -308 0
8 -310 0
8 -312 0
8 -314 0
8 -316 0
8 -318 0
8 -320 0
8 -322 0
8 -324 0
8 -326 0
8 -328 0
8 -330 0
8 -332 0
8 -334 0
8 -336 0
8 -338 0
8 -340 0
8 -342 0
8 -344 0
8 -346 0
8 -348 0
8 -350 0
8 -352 0
8 -354 0
8 -356 0
8 -358 0
8 -360 0
8 -362 0
8 -364 0
8 -366 0
8 -368 0
8 -370 0
8 -372 0
8 -374 0
8 -376 0
8 -378 0
8 -380 0
8 -382 0
8 -384 0
8 -386 0
8 -388 0
8 -390 0
8 -392 0
8 -394 0
8 -396 0
8 -398 0
8 -400 0
4 -2 0
4 -22 0
4 -42 0
4 -62 0
4 -82 0
4 -102 0
4 -122 0
4 -142 0
4 -162 0
4 -182 0
4 -4 0
4 -24 0
4 -44 0
4 -64 0
4 -84 0
4 -104 0
4 -124 0
4 -144 0
4 -164 0
4 -184 0
4 -6 0
4 -26 0
4 -46 0
4 -66 0
4 -86 0
4 -106 0
4 -126 0
4 -146 0
4 -166 0
4 -186 0
4 -8 0
4 -28 0
4 -48 0
4 -68 0
4 -88 0
4 -108 0
4 -128 0
4 -148 0
4 -168 0
4 -188 0
4 -10 0
4 -30 0
4 -50 0
4 -70 0
4 -90 0
4 -110 0
4 -130 0
4 -150 0
4 -170 0
4 -190 0
4 -12 0
4 -32 0
4 -52 0
4 -72 0
4 -92 0
4 -112 0
4 -132 0
4 -152 0
4 -172 0
4 -192 0
4 -14 0
4 -34 0
4 -54 0
4 -74 0
4 -94 0
4 -114 0
4 -134 0
4 -154 0
4 -174 0
4 -194 0
4 -16 0
4 -36 0
4 -56 0
4 -76 0
4 -96 0
4 -116 0
4 -136 0
4 -156 0
4 -176 0
4 -196 0
4 -18 0
4 -38 0
4 -58 0
4 -78 0
4 -98 0
4 -118 0
4 -138 0
4 -158 0
4 -178 0
4 -198 0
4 -20 0
4 -40 0
4 -60 0
4 -80 0
4 -100 0
4 -120 0
4 -140 0
4 -160 0
4 -180 0
4 -200 0
